224 300 28 18 39 28 47 24 78 25 53 26 66 34 18 69 79 76 81 18 92 46 43 75 86 7 51 4 29 11 28 16 86 7 33 25 34 31 48 63 55 52 89 72 85 58 93 63 85 25 32 77 70 74 3 7 32 53 10 13 16 89 28 1 48 61 25 81 43 24 96 98 76 36 21 60 93 13 75 30 90 6 6 11 32 8 18 63 12 79 75 79 20 55 32 67 15 8 99 9 32 94 58 7 29 79 18 74 43 92 3 32 50 8 95 81 67 12 95 30 42 70 61 61 24 92 27 90 99 26 98 30 19 56 88 100 86 58 73 28 1 75 12 50 34 6 82 52 69 77 81 10 46 93 71 21 84 49 62 35 26 59 16 97 66 56 96 51 13 68 31 13 42 42 63 27 99 96 78 67 72 10 76 69 3 98 89 38 99 50 72 24 61 88 20 78 95 15 29 7 34 59 19 75 52 33 1 50 29 30 16 100 40 43 69 94 93 9 31 91 11 3 66 23 42 86 